190 649 698
559
524
565
563
562
561
560
525
526
527
528
564
529
530
531
532
533
534
535
536
537
538
539
540
541
542
543
544
577
582
589
601
607
602
590
583
578
571
573
579
584
591
603
592
604
619
620
621
605
593
576
575
574
545
546
547
512
513
515
516
517
518
519
520
521
553
554
596
609
610
623
622
653
671
687
705
725
726
745
751
767
766
765
764
763
762
761
760
759
758
750
749
721
701
684
668
650
635
636
637
638
651
669
685
703
723
744
722
702
720
700
683
743
719
699
682
698
718
742
741
748
740
716
739
715
696
680
664
679
695
714
738
747
737
713
736
757
756
755
785
784
823
824
825
826
827
828
829
830
831
832
834
859
835
836
861
837
838
839
862
796
797
799
800
841
863
907
888
908
929
935
936
961
962
963
938
939
940
912
911
890
873
889
909
843
804
870
905
805
847

